(set-option :print-success true)
(set-option :produce-models true)
(set-logic ALL)
(declare-sort Unspecified 0)
(declare-sort Unit 0)
(declare-const loaded_value_0 (_ BitVec 64))
(declare-const clif_load_active_1 Bool)
(declare-const clif_load_size_bits_2 Int)
(declare-const clif_load_addr_3 (_ BitVec 64))
(declare-const clif_store_active_4 Bool)
(declare-const clif_store_size_bits_5 Int)
(declare-const clif_store_addr_6 (_ BitVec 64))
(declare-const clif_store_value_7 (_ BitVec 64))
(declare-const clif_trap_8 Bool)
(declare-const isa_load_active_9 Bool)
(declare-const isa_load_size_bits_10 Int)
(declare-const isa_load_addr_11 (_ BitVec 64))
(declare-const isa_store_active_12 Bool)
(declare-const isa_store_size_bits_13 Int)
(declare-const isa_store_addr_14 (_ BitVec 64))
(declare-const isa_store_value_15 (_ BitVec 64))
(declare-const b0_16 (_ BitVec 1))
(declare-const b3_some_17 Bool)
(declare-const b3_inner_0_aligned_18 Bool)
(declare-const b3_inner_0_trapcode_19 (_ BitVec 4))
(declare-const b3_inner_1_20 (_ BitVec 16))
(declare-const b3_inner_2_21 (_ BitVec 64))
(declare-const b3_inner_3_22 (_ BitVec 32))
(declare-const e23 Bool)
(assert (! (= e23 true) :named expr23))
(declare-const e24 Int)
(assert (! (= e24 16) :named expr24))
(declare-const e25 Bool)
(assert (! (= e25 (= clif_store_size_bits_5 e24)) :named expr25))
(declare-const e26 Int)
(assert (! (= e26 64) :named expr26))
(declare-const e27 (_ BitVec 64))
(assert (! (= e27 ((_ sign_extend 32) b3_inner_3_22)) :named expr27))
(declare-const e28 (_ BitVec 64))
(assert (! (= e28 (bvadd b3_inner_2_21 e27)) :named expr28))
(declare-const e29 Bool)
(assert (! (= e29 (= clif_store_addr_6 e28)) :named expr29))
(declare-const e30 (_ BitVec 16))
(assert (! (= e30 ((_ extract 15 0) clif_store_value_7)) :named expr30))
(declare-const e31 Bool)
(assert (! (= e31 (= e30 b3_inner_1_20)) :named expr31))
(declare-const e32 Bool)
(assert (! (= e32 (and e29 e31)) :named expr32))
(declare-const e33 Bool)
(assert (! (= e33 (and e25 e32)) :named expr33))
(declare-const e34 Bool)
(assert (! (= e34 (and clif_store_active_4 e33)) :named expr34))
(declare-const e35 (_ BitVec 1))
(assert (! (= e35 #b1) :named expr35))
(declare-const e36 Bool)
(assert (! (= e36 (= b0_16 e35)) :named expr36))
(declare-const e37 Bool)
(assert (! (= e37 (and e34 e36)) :named expr37))
(declare-const e38 Bool)
(assert (! (= e38 (= b3_some_17 e23)) :named expr38))
(declare-const e39 Bool)
(assert (! (= e39 (=> e23 e37)) :named expr39))
(declare-const b4_0_aligned_40 Bool)
(declare-const b4_0_trapcode_41 (_ BitVec 4))
(declare-const b4_1_42 (_ BitVec 16))
(declare-const b4_2_43 (_ BitVec 64))
(declare-const b4_3_44 (_ BitVec 32))
(declare-const e45 Bool)
(assert (! (= e45 (= b4_0_aligned_40 b3_inner_0_aligned_18)) :named expr45))
(declare-const e46 Bool)
(assert (! (= e46 (= b4_0_trapcode_41 b3_inner_0_trapcode_19)) :named expr46))
(declare-const e47 Bool)
(assert (! (= e47 (and e45 e46)) :named expr47))
(declare-const e48 Bool)
(assert (! (= e48 (= b4_1_42 b3_inner_1_20)) :named expr48))
(declare-const e49 Bool)
(assert (! (= e49 (= b4_2_43 b3_inner_2_21)) :named expr49))
(declare-const e50 Bool)
(assert (! (= e50 (= b4_3_44 b3_inner_3_22)) :named expr50))
(declare-const e51 Bool)
(assert (! (= e51 (and e47 e48)) :named expr51))
(declare-const e52 Bool)
(assert (! (= e52 (and e51 e49)) :named expr52))
(declare-const e53 Bool)
(assert (! (= e53 (and e52 e50)) :named expr53))
(declare-const e54 Bool)
(assert (! (= e54 (=> b3_some_17 e53)) :named expr54))
(declare-const b5_55 (_ BitVec 16))
(declare-const e56 Bool)
(assert (! (= e56 (= b5_55 b4_1_42)) :named expr56))
(declare-const b6_bits_57 Int)
(declare-const e58 Int)
(assert (! (= e58 16) :named expr58))
(declare-const e59 Bool)
(assert (! (= e59 (= b6_bits_57 e58)) :named expr59))
(declare-const b7_some_60 Bool)
(declare-const b7_inner_bits_61 Int)
(declare-const e62 Bool)
(assert (! (= e62 (= b6_bits_57 b7_inner_bits_61)) :named expr62))
(declare-const e63 Bool)
(assert (! (= e63 (= b7_some_60 e23)) :named expr63))
(declare-const e64 Bool)
(assert (! (= e64 (=> e23 e62)) :named expr64))
(declare-const b8_aligned_65 Bool)
(declare-const b8_trapcode_66 (_ BitVec 4))
(declare-const e67 Bool)
(assert (! (= e67 (= b8_aligned_65 b4_0_aligned_40)) :named expr67))
(declare-const e68 Bool)
(assert (! (= e68 (= b8_trapcode_66 b4_0_trapcode_41)) :named expr68))
(declare-const e69 Bool)
(assert (! (= e69 (and e67 e68)) :named expr69))
(declare-const b9_70 (_ BitVec 64))
(declare-const e71 Bool)
(assert (! (= e71 (= b9_70 b4_2_43)) :named expr71))
(declare-const b10_72 (_ BitVec 32))
(declare-const e73 Bool)
(assert (! (= e73 (= b10_72 b4_3_44)) :named expr73))
(declare-const b12_74 (_ BitVec 64))
(declare-const b65_addr_75 (_ BitVec 64))
(declare-const b65_flags_aligned_76 Bool)
(declare-const b65_flags_trapcode_77 (_ BitVec 4))
(declare-const b64_78 (_ BitVec 32))
(declare-const e79 Bool)
(assert (! (= e79 (= b64_78 b10_72)) :named expr79))
(declare-const b61_80 (_ BitVec 64))
(declare-const b35_81 (_ BitVec 64))
(declare-const b33_0_bits_82 Int)
(declare-const b33_1_83 (_ BitVec 64))
(declare-const b33_2_84 (_ BitVec 64))
(declare-const b32_some_85 Bool)
(declare-const b32_inner_0_bits_86 Int)
(declare-const b32_inner_1_87 (_ BitVec 64))
(declare-const b32_inner_2_88 (_ BitVec 64))
(declare-const b31_89 (_ BitVec 64))
(declare-const b30_some_90 Bool)
(declare-const b30_inner_91 (_ BitVec 64))
(declare-const e92 Bool)
(assert (! (= e92 (= b9_70 b30_inner_91)) :named expr92))
(declare-const e93 Bool)
(assert (! (= e93 (= b30_some_90 e23)) :named expr93))
(declare-const e94 Bool)
(assert (! (= e94 (=> e23 e92)) :named expr94))
(declare-const e95 Bool)
(assert (! (= e95 (= b31_89 b30_inner_91)) :named expr95))
(declare-const e96 Bool)
(assert (! (= e96 (=> b30_some_90 e95)) :named expr96))
(declare-const e97 (_ BitVec 64))
(assert (! (= e97 (bvadd b32_inner_1_87 b32_inner_2_88)) :named expr97))
(declare-const e98 Bool)
(assert (! (= e98 (= b31_89 e97)) :named expr98))
(declare-const e99 Bool)
(assert (! (= e99 (= b32_some_85 e23)) :named expr99))
(declare-const e100 Bool)
(assert (! (= e100 (=> e23 e98)) :named expr100))
(declare-const e101 Bool)
(assert (! (= e101 (= b33_0_bits_82 b32_inner_0_bits_86)) :named expr101))
(declare-const e102 Bool)
(assert (! (= e102 (= b33_1_83 b32_inner_1_87)) :named expr102))
(declare-const e103 Bool)
(assert (! (= e103 (= b33_2_84 b32_inner_2_88)) :named expr103))
(declare-const e104 Bool)
(assert (! (= e104 (and e101 e102)) :named expr104))
(declare-const e105 Bool)
(assert (! (= e105 (and e104 e103)) :named expr105))
(declare-const e106 Bool)
(assert (! (= e106 (=> b32_some_85 e105)) :named expr106))
(declare-const e107 Bool)
(assert (! (= e107 (= b35_81 b33_2_84)) :named expr107))
(declare-const e108 (_ BitVec 64))
(assert (! (= e108 b35_81) :named expr108))
(declare-const e109 Bool)
(assert (! (= e109 (= b61_80 e108)) :named expr109))
(declare-const b63_110 (_ BitVec 64))
(declare-const b62_111 (_ BitVec 64))
(declare-const b49_0_bits_112 Int)
(declare-const b49_1_113 (_ BitVec 64))
(declare-const b49_2_114 (_ BitVec 64))
(declare-const b48_some_115 Bool)
(declare-const b48_inner_0_bits_116 Int)
(declare-const b48_inner_1_117 (_ BitVec 64))
(declare-const b48_inner_2_118 (_ BitVec 64))
(declare-const b47_119 (_ BitVec 64))
(declare-const b46_some_120 Bool)
(declare-const b46_inner_121 (_ BitVec 64))
(declare-const b34_122 (_ BitVec 64))
(declare-const e123 Bool)
(assert (! (= e123 (= b34_122 b33_1_83)) :named expr123))
(declare-const e124 Bool)
(assert (! (= e124 (= b34_122 b46_inner_121)) :named expr124))
(declare-const e125 Bool)
(assert (! (= e125 (= b46_some_120 e23)) :named expr125))
(declare-const e126 Bool)
(assert (! (= e126 (=> e23 e124)) :named expr126))
(declare-const e127 Bool)
(assert (! (= e127 (= b47_119 b46_inner_121)) :named expr127))
(declare-const e128 Bool)
(assert (! (= e128 (=> b46_some_120 e127)) :named expr128))
(declare-const e129 Int)
(assert (! (= e129 64) :named expr129))
(declare-const e130 (_ BitVec 64))
(assert (! (= e130 ((_ int2bv 64) e129)) :named expr130))
(declare-const e131 (_ BitVec 64))
(assert (! (= e131 #b0000000000000000000000000000000000000000000000000000000000000001) :named expr131))
(declare-const e132 (_ BitVec 64))
(assert (! (= e132 (bvsub e130 e131)) :named expr132))
(declare-const e133 (_ BitVec 64))
(assert (! (= e133 e132) :named expr133))
(declare-const e134 (_ BitVec 64))
(assert (! (= e134 (bvand b48_inner_2_118 e133)) :named expr134))
(declare-const e135 (_ BitVec 64))
(assert (! (= e135 (bvshl b48_inner_1_117 e134)) :named expr135))
(declare-const e136 Bool)
(assert (! (= e136 (= b47_119 e135)) :named expr136))
(declare-const e137 Bool)
(assert (! (= e137 (= b48_some_115 e23)) :named expr137))
(declare-const e138 Bool)
(assert (! (= e138 (=> e23 e136)) :named expr138))
(declare-const e139 Bool)
(assert (! (= e139 (= b49_0_bits_112 b48_inner_0_bits_116)) :named expr139))
(declare-const e140 Bool)
(assert (! (= e140 (= b49_1_113 b48_inner_1_117)) :named expr140))
(declare-const e141 Bool)
(assert (! (= e141 (= b49_2_114 b48_inner_2_118)) :named expr141))
(declare-const e142 Bool)
(assert (! (= e142 (and e139 e140)) :named expr142))
(declare-const e143 Bool)
(assert (! (= e143 (and e142 e141)) :named expr143))
(declare-const e144 Bool)
(assert (! (= e144 (=> b48_some_115 e143)) :named expr144))
(declare-const e145 Bool)
(assert (! (= e145 (= b62_111 b49_1_113)) :named expr145))
(declare-const e146 (_ BitVec 64))
(assert (! (= e146 b62_111) :named expr146))
(declare-const e147 Bool)
(assert (! (= e147 (= b63_110 e146)) :named expr147))
(declare-const b57_148 (_ BitVec 8))
(declare-const b56_some_149 Bool)
(declare-const b56_inner_150 (_ BitVec 8))
(declare-const b55_151 (_ BitVec 64))
(declare-const b54_0_bits_152 Int)
(declare-const b54_1_153 (_ BitVec 64))
(declare-const b53_some_154 Bool)
(declare-const b53_inner_0_bits_155 Int)
(declare-const b53_inner_1_156 (_ BitVec 64))
(declare-const b52_157 (_ BitVec 64))
(declare-const b51_some_158 Bool)
(declare-const b51_inner_159 (_ BitVec 64))
(declare-const b50_160 (_ BitVec 64))
(declare-const e161 Bool)
(assert (! (= e161 (= b50_160 b49_2_114)) :named expr161))
(declare-const e162 Bool)
(assert (! (= e162 (= b50_160 b51_inner_159)) :named expr162))
(declare-const e163 Bool)
(assert (! (= e163 (= b51_some_158 e23)) :named expr163))
(declare-const e164 Bool)
(assert (! (= e164 (=> e23 e162)) :named expr164))
(declare-const e165 Bool)
(assert (! (= e165 (= b52_157 b51_inner_159)) :named expr165))
(declare-const e166 Bool)
(assert (! (= e166 (=> b51_some_158 e165)) :named expr166))
(declare-const e167 (_ BitVec 64))
(assert (! (= e167 b52_157) :named expr167))
(declare-const e168 Bool)
(assert (! (= e168 (= b53_inner_1_156 e167)) :named expr168))
(declare-const e169 Bool)
(assert (! (= e169 (= b53_some_154 e23)) :named expr169))
(declare-const e170 Bool)
(assert (! (= e170 (=> e23 e168)) :named expr170))
(declare-const e171 Bool)
(assert (! (= e171 (= b54_0_bits_152 b53_inner_0_bits_155)) :named expr171))
(declare-const e172 Bool)
(assert (! (= e172 (= b54_1_153 b53_inner_1_156)) :named expr172))
(declare-const e173 Bool)
(assert (! (= e173 (and e171 e172)) :named expr173))
(declare-const e174 Bool)
(assert (! (= e174 (=> b53_some_154 e173)) :named expr174))
(declare-const e175 Bool)
(assert (! (= e175 (= b55_151 b54_1_153)) :named expr175))
(declare-const e176 (_ BitVec 64))
(assert (! (= e176 #b0000000000000000000000000000000000000000000000000000000000000000) :named expr176))
(declare-const e177 Bool)
(assert (! (= e177 (bvsge b55_151 e176)) :named expr177))
(declare-const e178 (_ BitVec 64))
(assert (! (= e178 #b0000000000000000000000000000000000000000000000000000000100000000) :named expr178))
(declare-const e179 Bool)
(assert (! (= e179 (bvslt b55_151 e178)) :named expr179))
(declare-const e180 (_ BitVec 64))
(assert (! (= e180 ((_ zero_extend 56) b56_inner_150)) :named expr180))
(declare-const e181 Bool)
(assert (! (= e181 (= b55_151 e180)) :named expr181))
(declare-const e182 Bool)
(assert (! (= e182 (and e177 e179)) :named expr182))
(declare-const e183 Bool)
(assert (! (= e183 (= b56_some_149 e182)) :named expr183))
(declare-const e184 Bool)
(assert (! (= e184 (=> e182 e181)) :named expr184))
(declare-const e185 Bool)
(assert (! (= e185 (= b57_148 b56_inner_150)) :named expr185))
(declare-const e186 Bool)
(assert (! (= e186 (=> b56_some_149 e185)) :named expr186))
(declare-const e187 (_ BitVec 64))
(assert (! (= e187 ((_ sign_extend 32) b64_78)) :named expr187))
(declare-const e188 (_ BitVec 64))
(assert (! (= e188 (bvadd b61_80 e187)) :named expr188))
(declare-const e189 (_ BitVec 64))
(assert (! (= e189 ((_ zero_extend 56) b57_148)) :named expr189))
(declare-const e190 (_ BitVec 64))
(assert (! (= e190 (bvshl b63_110 e189)) :named expr190))
(declare-const e191 (_ BitVec 64))
(assert (! (= e191 (bvadd e188 e190)) :named expr191))
(declare-const e192 Bool)
(assert (! (= e192 (= b65_addr_75 e191)) :named expr192))
(declare-const e193 Bool)
(assert (! (= e193 (= b65_flags_aligned_76 b8_aligned_65)) :named expr193))
(declare-const e194 Bool)
(assert (! (= e194 (= b65_flags_trapcode_77 b8_trapcode_66)) :named expr194))
(declare-const e195 Bool)
(assert (! (= e195 (and e193 e194)) :named expr195))
(declare-const e196 Bool)
(assert (! (= e196 (= b12_74 b65_addr_75)) :named expr196))
(declare-const b13_197 (_ BitVec 64))
(declare-const e198 (_ BitVec 64))
(declare-const $conv_to_padding0 (_ BitVec 48))
(assert (! (= e198 (concat $conv_to_padding0 b5_55)) :named expr198))
(declare-const e199 Bool)
(assert (! (= e199 (= b13_197 e198)) :named expr199))
(declare-const b14_bits_200 Int)
(declare-const e201 Bool)
(assert (! (= e201 (= b14_bits_200 b7_inner_bits_61)) :named expr201))
(declare-const e202 Bool)
(assert (! (= e202 (=> b7_some_60 e201)) :named expr202))
(declare-const b17_some_203 Bool)
(declare-const b17_inner_204 (_ BitVec 1))
(declare-const b20_205 (_ BitVec 1))
(declare-const e206 Bool)
(assert (! (= e206 (= b20_205 e35)) :named expr206))
(declare-const e207 Bool)
(assert (! (= e207 (= b20_205 b17_inner_204)) :named expr207))
(declare-const b19_208 (_ BitVec 1))
(declare-const b26_discriminant_209 Int)
(declare-const b26_Inst_inst_210 (_ BitVec 1))
(declare-const b26_Inst2_inst1_211 (_ BitVec 1))
(declare-const b26_Inst2_inst2_212 (_ BitVec 1))
(declare-const b26_Inst3_inst1_213 (_ BitVec 1))
(declare-const b26_Inst3_inst2_214 (_ BitVec 1))
(declare-const b26_Inst3_inst3_215 (_ BitVec 1))
(declare-const e216 Int)
(assert (! (= e216 0) :named expr216))
(declare-const e217 Int)
(assert (! (= e217 3) :named expr217))
(declare-const e218 Bool)
(assert (! (= e218 (<= e216 b26_discriminant_209)) :named expr218))
(declare-const e219 Bool)
(assert (! (= e219 (< b26_discriminant_209 e217)) :named expr219))
(declare-const e220 Bool)
(assert (! (= e220 (and e218 e219)) :named expr220))
(declare-const b25_221 (_ BitVec 1))
(declare-const b24_discriminant_222 Int)
(declare-const e223 Int)
(assert (! (= e223 4) :named expr223))
(declare-const e224 Bool)
(assert (! (= e224 (<= e216 b24_discriminant_222)) :named expr224))
(declare-const e225 Bool)
(assert (! (= e225 (< b24_discriminant_222 e223)) :named expr225))
(declare-const e226 Bool)
(assert (! (= e226 (and e224 e225)) :named expr226))
(declare-const e227 Int)
(assert (! (= e227 8) :named expr227))
(declare-const e228 Bool)
(assert (! (= e228 (= b14_bits_200 e227)) :named expr228))
(declare-const e229 Bool)
(assert (! (= e229 (<= e216 e216)) :named expr229))
(declare-const e230 Bool)
(assert (! (= e230 (< e216 e223)) :named expr230))
(declare-const e231 Bool)
(assert (! (= e231 (and e229 e230)) :named expr231))
(declare-const e232 Int)
(assert (! (= e232 16) :named expr232))
(declare-const e233 Bool)
(assert (! (= e233 (= b14_bits_200 e232)) :named expr233))
(declare-const e234 Int)
(assert (! (= e234 1) :named expr234))
(declare-const e235 Bool)
(assert (! (= e235 (<= e216 e234)) :named expr235))
(declare-const e236 Bool)
(assert (! (= e236 (< e234 e223)) :named expr236))
(declare-const e237 Bool)
(assert (! (= e237 (and e235 e236)) :named expr237))
(declare-const e238 Int)
(assert (! (= e238 32) :named expr238))
(declare-const e239 Bool)
(assert (! (= e239 (= b14_bits_200 e238)) :named expr239))
(declare-const e240 Int)
(assert (! (= e240 2) :named expr240))
(declare-const e241 Bool)
(assert (! (= e241 (<= e216 e240)) :named expr241))
(declare-const e242 Bool)
(assert (! (= e242 (< e240 e223)) :named expr242))
(declare-const e243 Bool)
(assert (! (= e243 (and e241 e242)) :named expr243))
(declare-const e244 Bool)
(assert (! (= e244 (= b14_bits_200 e26)) :named expr244))
(declare-const e245 Bool)
(assert (! (= e245 (<= e216 e217)) :named expr245))
(declare-const e246 Bool)
(assert (! (= e246 (< e217 e223)) :named expr246))
(declare-const e247 Bool)
(assert (! (= e247 (and e245 e246)) :named expr247))
(declare-const undef_248 Int)
(declare-const e249 Int)
(assert (! (= e249 (ite e244 e217 undef_248)) :named expr249))
(declare-const e250 Int)
(assert (! (= e250 (ite e239 e240 e249)) :named expr250))
(declare-const e251 Int)
(assert (! (= e251 (ite e233 e234 e250)) :named expr251))
(declare-const e252 Int)
(assert (! (= e252 (ite e228 e216 e251)) :named expr252))
(declare-const e253 Bool)
(assert (! (= e253 (= b24_discriminant_222 e252)) :named expr253))
(declare-const e254 Bool)
(assert (! (= e254 (= b24_discriminant_222 e216)) :named expr254))
(declare-const e255 Bool)
(assert (! (= e255 (=> e254 e23)) :named expr255))
(declare-const e256 Bool)
(assert (! (= e256 (= b24_discriminant_222 e234)) :named expr256))
(declare-const e257 Bool)
(assert (! (= e257 (=> e256 e23)) :named expr257))
(declare-const e258 Bool)
(assert (! (= e258 (= b24_discriminant_222 e240)) :named expr258))
(declare-const e259 Bool)
(assert (! (= e259 (=> e258 e23)) :named expr259))
(declare-const e260 Bool)
(assert (! (= e260 (= b24_discriminant_222 e217)) :named expr260))
(declare-const e261 Bool)
(assert (! (= e261 (=> e260 e23)) :named expr261))
(declare-const e262 Bool)
(assert (! (= e262 (and e253 e255)) :named expr262))
(declare-const e263 Bool)
(assert (! (= e263 (and e262 e257)) :named expr263))
(declare-const e264 Bool)
(assert (! (= e264 (and e263 e259)) :named expr264))
(declare-const e265 Bool)
(assert (! (= e265 (and e264 e261)) :named expr265))
(declare-const e266 Bool)
(assert (! (= e266 (= isa_store_active_12 e23)) :named expr266))
(declare-const e267 Bool)
(assert (! (= e267 (and e254 e255)) :named expr267))
(declare-const e268 Bool)
(assert (! (= e268 (and e267 e257)) :named expr268))
(declare-const e269 Bool)
(assert (! (= e269 (and e268 e259)) :named expr269))
(declare-const e270 Bool)
(assert (! (= e270 (and e269 e261)) :named expr270))
(declare-const e271 Bool)
(assert (! (= e271 (and e256 e255)) :named expr271))
(declare-const e272 Bool)
(assert (! (= e272 (and e271 e257)) :named expr272))
(declare-const e273 Bool)
(assert (! (= e273 (and e272 e259)) :named expr273))
(declare-const e274 Bool)
(assert (! (= e274 (and e273 e261)) :named expr274))
(declare-const e275 Bool)
(assert (! (= e275 (and e258 e255)) :named expr275))
(declare-const e276 Bool)
(assert (! (= e276 (and e275 e257)) :named expr276))
(declare-const e277 Bool)
(assert (! (= e277 (and e276 e259)) :named expr277))
(declare-const e278 Bool)
(assert (! (= e278 (and e277 e261)) :named expr278))
(declare-const e279 Bool)
(assert (! (= e279 (and e260 e255)) :named expr279))
(declare-const e280 Bool)
(assert (! (= e280 (and e279 e257)) :named expr280))
(declare-const e281 Bool)
(assert (! (= e281 (and e280 e259)) :named expr281))
(declare-const e282 Bool)
(assert (! (= e282 (and e281 e261)) :named expr282))
(declare-const undef_283 Int)
(declare-const e284 Int)
(assert (! (= e284 (ite e282 e26 undef_283)) :named expr284))
(declare-const e285 Int)
(assert (! (= e285 (ite e278 e238 e284)) :named expr285))
(declare-const e286 Int)
(assert (! (= e286 (ite e274 e232 e285)) :named expr286))
(declare-const e287 Int)
(assert (! (= e287 (ite e270 e227 e286)) :named expr287))
(declare-const e288 Bool)
(assert (! (= e288 (= isa_store_size_bits_13 e287)) :named expr288))
(declare-const e289 Bool)
(assert (! (= e289 (= isa_store_addr_14 b12_74)) :named expr289))
(declare-const e290 Bool)
(assert (! (= e290 (= isa_store_value_15 b13_197)) :named expr290))
(declare-const undef_Inst2_inst1_291 (_ BitVec 1))
(declare-const undef_Inst2_inst2_292 (_ BitVec 1))
(declare-const undef_Inst3_inst1_293 (_ BitVec 1))
(declare-const undef_Inst3_inst2_294 (_ BitVec 1))
(declare-const undef_Inst3_inst3_295 (_ BitVec 1))
(declare-const e296 Bool)
(assert (! (= e296 (< e216 e217)) :named expr296))
(declare-const e297 Bool)
(assert (! (= e297 (and e229 e296)) :named expr297))
(declare-const e298 Bool)
(assert (! (= e298 (= b26_discriminant_209 e216)) :named expr298))
(declare-const e299 Bool)
(assert (! (= e299 (= b26_Inst_inst_210 b25_221)) :named expr299))
(declare-const e300 Bool)
(assert (! (= e300 (=> e298 e299)) :named expr300))
(declare-const e301 Bool)
(assert (! (= e301 (= b26_discriminant_209 e234)) :named expr301))
(declare-const e302 Bool)
(assert (! (= e302 (= b26_Inst2_inst1_211 undef_Inst2_inst1_291)) :named expr302))
(declare-const e303 Bool)
(assert (! (= e303 (= b26_Inst2_inst2_212 undef_Inst2_inst2_292)) :named expr303))
(declare-const e304 Bool)
(assert (! (= e304 (and e302 e303)) :named expr304))
(declare-const e305 Bool)
(assert (! (= e305 (=> e301 e304)) :named expr305))
(declare-const e306 Bool)
(assert (! (= e306 (= b26_discriminant_209 e240)) :named expr306))
(declare-const e307 Bool)
(assert (! (= e307 (= b26_Inst3_inst1_213 undef_Inst3_inst1_293)) :named expr307))
(declare-const e308 Bool)
(assert (! (= e308 (= b26_Inst3_inst2_214 undef_Inst3_inst2_294)) :named expr308))
(declare-const e309 Bool)
(assert (! (= e309 (= b26_Inst3_inst3_215 undef_Inst3_inst3_295)) :named expr309))
(declare-const e310 Bool)
(assert (! (= e310 (and e307 e308)) :named expr310))
(declare-const e311 Bool)
(assert (! (= e311 (and e310 e309)) :named expr311))
(declare-const e312 Bool)
(assert (! (= e312 (=> e306 e311)) :named expr312))
(declare-const e313 Bool)
(assert (! (= e313 (and e298 e300)) :named expr313))
(declare-const e314 Bool)
(assert (! (= e314 (and e313 e305)) :named expr314))
(declare-const e315 Bool)
(assert (! (= e315 (and e314 e312)) :named expr315))
(declare-const b58_316 (_ BitVec 32))
(declare-const e317 (_ BitVec 32))
(assert (! (= e317 ((_ zero_extend 24) b57_148)) :named expr317))
(declare-const e318 Bool)
(assert (! (= e318 (= b58_316 e317)) :named expr318))
(declare-const b59_319 (_ BitVec 32))
(declare-const e320 (_ BitVec 32))
(assert (! (= e320 #b00000000000000000000000000000011) :named expr320))
(declare-const e321 Bool)
(assert (! (= e321 (= b59_319 e320)) :named expr321))
(declare-const b60_some_322 Bool)
(declare-const b60_inner_323 (_ BitVec 1))
(declare-const e324 Bool)
(assert (! (= e324 (bvule b58_316 b59_319)) :named expr324))
(declare-const e325 Bool)
(assert (! (= e325 (= b60_inner_323 e35)) :named expr325))
(declare-const e326 Bool)
(assert (! (= e326 (= b60_some_322 e324)) :named expr326))
(declare-const e327 Bool)
(assert (! (= e327 (=> e324 e325)) :named expr327))
(declare-const e328 Bool)
(assert (! (= e328 (= b17_inner_204 b0_16)) :named expr328))
(declare-const e329 Bool)
(assert (! (= e329 (= b17_some_203 e23)) :named expr329))
(declare-const e330 Bool)
(assert (! (= e330 (=> e23 e328)) :named expr330))
(declare-const e331 Bool)
(assert (! (= e331 (not clif_load_active_1)) :named expr331))
(declare-const e332 Bool)
(assert (! (= e332 (not clif_store_active_4)) :named expr332))
(declare-const e333 Bool)
(assert (! (= e333 (= clif_store_size_bits_5 e234)) :named expr333))
(declare-const e334 Bool)
(assert (! (= e334 (and e332 e333)) :named expr334))
(declare-const e335 Bool)
(assert (! (= e335 (not e23)) :named expr335))
(declare-const e336 Bool)
(assert (! (= e336 (=> e335 e334)) :named expr336))
(declare-const e337 Bool)
(assert (! (= e337 (not clif_trap_8)) :named expr337))
(declare-const e338 Bool)
(assert (! (= e338 (not isa_load_active_9)) :named expr338))
(declare-const e339 Bool)
(assert (! (= e339 (not isa_store_active_12)) :named expr339))
(declare-const e340 Bool)
(assert (! (= e340 (= isa_store_size_bits_13 e234)) :named expr340))
(declare-const e341 Bool)
(assert (! (= e341 (and e339 e340)) :named expr341))
(declare-const e342 Bool)
(assert (! (= e342 (=> e335 e341)) :named expr342))
(push)
(assert (and e38 e39 e54 e56 e59 e63 e64 e69 e71 e73 e79 e93 e94 e96 e99 e100 e106 e107 e109 e123 e125 e126 e128 e137 e138 e144 e145 e147 e161 e163 e164 e166 e169 e170 e174 e175 e183 e184 e186 e192 e195 e196 e199 e202 e206 b17_some_203 e207 e220 e226 e231 e237 e243 e247 e265 e231 e237 e243 e247 e266 e288 e289 e290 e297 e315 e23 e318 e321 e326 e327 e329 b3_some_17 b7_some_60 b30_some_90 b32_some_85 b46_some_120 b48_some_115 b51_some_158 b53_some_154 b56_some_149 b60_some_322 e23 e331 e336 e337 e338 e342))
(check-sat)
(pop)
(push)
(assert (not (=> (and e38 e39 e54 e56 e59 e63 e64 e69 e71 e73 e79 e93 e94 e96 e99 e100 e106 e107 e109 e123 e125 e126 e128 e137 e138 e144 e145 e147 e161 e163 e164 e166 e169 e170 e174 e175 e183 e184 e186 e192 e195 e196 e199 e202 e206 b17_some_203 e207 e220 e226 e231 e237 e243 e247 e265 e231 e237 e243 e247 e266 e288 e289 e290 e297 e315 e23 e318 e321 e326 e327 e329 b3_some_17 b7_some_60 b30_some_90 b32_some_85 b46_some_120 b48_some_115 b51_some_158 b53_some_154 b56_some_149 b60_some_322 e23 e331 e336 e337 e338 e342) e330)))
(check-sat)
(pop)
(exit)
